50
100 100
1 70 115
2 70 158
3 69 865
4 65 422
5 64 391
6 63 82
7 62 624
8 61 595
9 60 532
10 60 731
11 58 133
12 58 662
13 57 919
14 53 152
15 50 253
16 49 834
17 47 888
18 46 830
19 45 457
20 40 895
21 40 18
22 39 993
23 39 310
24 37 711
25 36 880
26 35 836
27 34 398
28 32 689
29 31 298
30 30 876
31 30 424
32 29 543
33 29 538
34 28 420
35 28 386
36 27 326
37 27 250
38 26 593
39 26 444
40 24 30
41 21 418
42 20 793
43 20 158
44 17 716
45 17 452
46 16 513
47 15 718
48 12 83
49 11 302
50 11 876
